1 -1 2 0
1 -1 -3 0
1 4 -2 0
1 -5 -6 0
1 6 -3 0
1 -6 7 0
1 3 6 0
1 3 4 0
1 3 -7 0
1 7 8 0
1 -7 -9 0
1 -7 -6 0
1 2 -8 0
1 2 10 0
1 -2 11 0
1 -12 -8 0
1 -12 11 0
1 -13 14 0
1 13 -7 0
1 15 16 0
1 15 7 0
1 17 9 0
1 17 -18 0
1 17 19 0
1 9 18 0
1 -9 -19 0
1 -20 21 0
1 22 -8 0
1 -22 -21 0
1 22 -17 0
1 -22 23 0
1 -24 25 0
1 24 26 0
1 27 28 0
1 -27 26 0
1 27 -29 0
1 -28 19 0
1 19 30 0
1 -19 17 0
1 18 -28 0
1 -18 -17 0
1 18 -31 0
1 -14 32 0
1 -11 15 0
1 -11 -14 0
1 -33 -32 0
1 -33 -34 0
1 -33 -35 0
1 33 17 0
1 33 36 0
1 10 -33 0
1 -10 -36 0
1 10 -12 0
1 37 38 0
1 37 10 0
1 -37 21 0
1 -37 -39 0
1 40 -10 0
1 40 11 0
1 40 -39 0
1 40 33 0
1 40 14 0
1 32 -10 0
1 39 20 0
1 -39 -24 0
1 8 25 0
1 8 -34 0
1 8 2 0
1 -8 -39 0
1 8 -7 0
1 -21 -41 0
1 -21 27 0
1 21 42 0
1 -38 22 0
1 38 37 0
1 41 -38 0
1 -41 23 0
1 -36 33 0
1 34 -8 0
1 43 -10 0
1 -43 -33 0
1 -30 -41 0
1 30 16 0
1 30 -42 0
1 23 -22 0
1 23 20 0
1 -23 -19 0
1 -23 -42 0
1 -44 18 0
1 -44 19 0
1 -31 45 0
1 -31 -18 0
1 -31 44 0
1 -31 -19 0
1 46 -45 0
1 46 -30 0
1 45 46 0
1 -45 7 0
1 -47 -2 0
1 47 -42 0
1 42 44 0
1 42 47 0
